wr=511;
nProviders=30;

cost_worker=[ 561 638 528 540 560 428 454 582 636 576 452 600 534 576 648 461 559 588 548 609 643 592 635 546 621 593 526 641 443 577 ];
available_workers=[ 21 27 23 10 26 20 25 14 22 25 19 21 26 24 15 13 30 11 29 14 16 27 21 13 26 11 23 21 29 11 ];
cost_contract=[ 2491 963 1156 2091 2607 881 1538 1630 1276 1275 1585 2902 895 2523 852 1344 1519 2233 1872 2238 2925 2115 2055 2021 1885 1917 852 1074 2625 1841 ];
country=[ 7 9 15 10 6 7 8 14 14 15 12 14 5 5 6 13 7 6 5 5 14 15 5 10 10 11 8 6 15 14 ];
cost_1=5;
cost_2=7;
cost_3=300;
